Optimal - objective value -108.88359200
      6 player_6                 1                -12.7282
      9 player_9                 1               -18.18602
     19 player_19                1              -22.891583
     49 player_49                1              -13.337275
     58 player_58                1                -11.3342
     90 player_90                1              -11.882875
    121 player_121               1               -7.296814
    216 player_216               1                -2.87965
    233 player_233               1               -8.346975
